NAME : kroD100-C-5-1-a__bsl_same_priority_ls__28572.tour
COMMENT : Length = 28572.000
COMMENT : Generated by compare_sota_instances.py for bsl_same_priority_ls
TYPE : TOUR
DIMENSION : 100
TOUR_SECTION
1
13
79
88
24
27
50
32
97
94
17
90
98
49
70
89
11
34
81
38
66
23
42
22
58
31
99
45
33
68
14
65
82
47
12
28
21
56
95
10
9
55
26
87
92
19
48
2
100
30
51
37
35
62
16
69
46
52
8
61
74
75
67
36
29
7
72
57
76
80
78
86
96
15
84
41
73
39
91
54
63
77
43
64
85
18
25
20
6
59
40
83
3
5
53
60
44
93
4
71
-1
EOF
